
Gurobi 10.0.1 (mac64[arm]) logging started Fri Sep 22 17:14:03 2023

Set parameter LogFile to value "results/scenario_capacity/CAP_f/CAP_f_-50/mip_log.txt"
Gurobi Optimizer version 10.0.1 build v10.0.1rc0 (mac64[arm])

CPU model: Apple M1
Thread count: 8 physical cores, 8 logical processors, using up to 8 threads

Optimize a model with 1724 rows, 6293 columns and 24662 nonzeros
Model fingerprint: 0x64f58811
Model has 8978 general constraints
Variable types: 1 continuous, 6292 integer (408 binary)
Coefficient statistics:
  Matrix range     [6e-02, 3e+05]
  Objective range  [9e-02, 2e+05]
  Bounds range     [1e+00, 2e+07]
  RHS range        [4e+03, 2e+04]
  GenCon rhs range [1e+00, 1e+00]
  GenCon coe range [1e+00, 1e+00]
Presolve removed 114 rows and 546 columns
Presolve time: 0.20s
Presolved: 1610 rows, 5747 columns, 22997 nonzeros
Presolved model has 4 SOS constraint(s)
Variable types: 0 continuous, 5747 integer (34 binary)

Root relaxation: objective 5.192402e+07, 6137 iterations, 0.12 seconds (0.10 work units)

    Nodes    |    Current Node    |     Objective Bounds      |     Work
 Expl Unexpl |  Obj  Depth IntInf | Incumbent    BestBd   Gap | It/Node Time

     0     0 5.1924e+07    0  656          - 5.1924e+07      -     -    0s
     0     0 5.2056e+07    0  771          - 5.2056e+07      -     -    0s
     0     0 5.2061e+07    0  751          - 5.2061e+07      -     -    0s
     0     0 5.2062e+07    0  803          - 5.2062e+07      -     -    0s
     0     0 5.2062e+07    0  804          - 5.2062e+07      -     -    0s
     0     0 5.2571e+07    0  788          - 5.2571e+07      -     -    1s
     0     0 5.2571e+07    0  815          - 5.2571e+07      -     -    1s
     0     0 5.2571e+07    0  813          - 5.2571e+07      -     -    1s
     0     0 5.2571e+07    0  816          - 5.2571e+07      -     -    1s
     0     0 5.2571e+07    0  701          - 5.2571e+07      -     -    1s
     0     0 5.2571e+07    0  695          - 5.2571e+07      -     -    1s
     0     2 5.2571e+07    0  695          - 5.2571e+07      -     -    1s
H 1459  1317                    5.603174e+07 5.3055e+07  5.31%  53.2    4s
  1530  1298 5.6032e+07  237    4 5.6032e+07 5.3055e+07  5.31%  51.2    5s
H 1535   436                    5.439398e+07 5.3055e+07  2.46%  51.1    5s
H 1586   161                    5.439379e+07 5.3075e+07  2.42%  55.8    5s
H 1589   154                    5.436421e+07 5.3075e+07  2.37%  55.7    6s
H 1592   148                    5.436418e+07 5.3075e+07  2.37%  55.6    6s
H 1634   169                    5.402231e+07 5.3075e+07  1.75%  78.0    9s
  1751   191 5.3392e+07   26  533 5.4022e+07 5.3075e+07  1.75%  89.7   10s
H 1776   179                    5.401640e+07 5.3075e+07  1.74%  91.6   10s
H 2188   285                    5.401528e+07 5.3111e+07  1.67%  86.0   11s
H 2195   285                    5.347551e+07 5.3111e+07  0.68%  85.9   11s
H 3484   515                    5.345209e+07 5.3248e+07  0.38%  71.4   13s

Cutting planes:
  Gomory: 1
  Implied bound: 442
  Projected implied bound: 11
  MIR: 42
  Flow cover: 8
  Inf proof: 1
  Relax-and-lift: 19

Explored 4884 nodes (299663 simplex iterations) in 14.91 seconds (13.37 work units)
Thread count was 8 (of 8 available processors)

Solution count 10: 5.34521e+07 5.34755e+07 5.40153e+07 ... 5.60317e+07

Optimal solution found (tolerance 1.00e-04)
Best objective 5.345209358750e+07, best bound 5.345209283581e+07, gap 0.0000%

Gurobi 10.0.1 (mac64[arm]) logging started Fri Sep 22 17:20:38 2023

Set parameter LogFile to value "results/scenario_capacity/CAP_f/CAP_f_-50/mip_log.txt"
Gurobi Optimizer version 10.0.1 build v10.0.1rc0 (mac64[arm])

CPU model: Apple M1
Thread count: 8 physical cores, 8 logical processors, using up to 8 threads

Optimize a model with 1724 rows, 6293 columns and 24662 nonzeros
Model fingerprint: 0x2a7b0e4a
Model has 8978 general constraints
Variable types: 1 continuous, 6292 integer (408 binary)
Coefficient statistics:
  Matrix range     [6e-02, 3e+05]
  Objective range  [9e-02, 2e+05]
  Bounds range     [1e+00, 2e+07]
  RHS range        [4e+03, 2e+04]
  GenCon rhs range [1e+00, 1e+00]
  GenCon coe range [1e+00, 1e+00]
Presolve removed 124 rows and 556 columns
Presolve time: 0.10s
Presolved: 1600 rows, 5737 columns, 22975 nonzeros
Presolved model has 4 SOS constraint(s)
Variable types: 0 continuous, 5737 integer (34 binary)

Root relaxation: objective 5.733574e+07, 6867 iterations, 0.09 seconds (0.12 work units)

    Nodes    |    Current Node    |     Objective Bounds      |     Work
 Expl Unexpl |  Obj  Depth IntInf | Incumbent    BestBd   Gap | It/Node Time

     0     0 5.7336e+07    0  592          - 5.7336e+07      -     -    0s
     0     0 5.7469e+07    0  733          - 5.7469e+07      -     -    0s
     0     0 5.7471e+07    0  589          - 5.7471e+07      -     -    0s
     0     0 5.7471e+07    0  588          - 5.7471e+07      -     -    0s
     0     0 5.7888e+07    0  883          - 5.7888e+07      -     -    0s
     0     0 5.7893e+07    0 1015          - 5.7893e+07      -     -    0s
     0     0 5.7894e+07    0 1022          - 5.7894e+07      -     -    0s
     0     0 5.7894e+07    0 1028          - 5.7894e+07      -     -    0s
     0     0 5.7894e+07    0 1046          - 5.7894e+07      -     -    0s
H    0     0                    6.252085e+07 5.7985e+07  7.25%     -    0s
     0     0 5.7985e+07    0  597 6.2521e+07 5.7985e+07  7.25%     -    0s
H    0     0                    5.982995e+07 5.7985e+07  3.08%     -    0s
     0     0 5.7985e+07    0  604 5.9830e+07 5.7985e+07  3.08%     -    0s
     0     0 5.7985e+07    0  595 5.9830e+07 5.7985e+07  3.08%     -    0s
H    0     0                    5.982228e+07 5.7985e+07  3.07%     -    0s
     0     0 5.7985e+07    0  595 5.9822e+07 5.7985e+07  3.07%     -    0s
     0     0 5.7985e+07    0  595 5.9822e+07 5.7985e+07  3.07%     -    0s
H    0     0                    5.969705e+07 5.7985e+07  2.87%     -    1s
     0     2 5.7985e+07    0  589 5.9697e+07 5.7985e+07  2.87%     -    1s
H   33    34                    5.965608e+07 5.8413e+07  2.08%   966    2s
H   74    63                    5.963404e+07 5.8413e+07  2.05%   763    2s
H   75    63                    5.949742e+07 5.8413e+07  1.82%   763    2s
H  350   122                    5.949593e+07 5.8462e+07  1.74%   314    3s
  1178   519 5.8989e+07   72   10 5.9496e+07 5.8678e+07  1.37%   164    5s
H 1506    92                    5.887423e+07 5.8678e+07  0.33%   138    5s
H 1520    49                    5.887376e+07 5.8678e+07  0.33%   137    8s
H 2546   823                    5.887375e+07 5.8678e+07  0.33%   113    9s
H 2548   462                    5.887352e+07 5.8678e+07  0.33%   113    9s
  2773   470 5.8874e+07   51   12 5.8874e+07 5.8722e+07  0.26%   108   10s

Cutting planes:
  Gomory: 3
  Implied bound: 447
  Projected implied bound: 4
  MIR: 24
  Flow cover: 9
  Inf proof: 1
  Relax-and-lift: 10

Explored 2928 nodes (314748 simplex iterations) in 10.10 seconds (13.31 work units)
Thread count was 8 (of 8 available processors)

Solution count 10: 5.88735e+07 5.88737e+07 5.88738e+07 ... 5.98223e+07

Optimal solution found (tolerance 1.00e-04)
Best objective 5.887352326700e+07, best bound 5.887352240527e+07, gap 0.0000%

Gurobi 10.0.1 (mac64[arm]) logging started Fri Sep 22 17:50:04 2023

Set parameter LogFile to value "results/scenario_capacity/CAP_f/CAP_f_-50/mip_log.txt"
Gurobi Optimizer version 10.0.1 build v10.0.1rc0 (mac64[arm])

CPU model: Apple M1
Thread count: 8 physical cores, 8 logical processors, using up to 8 threads

Optimize a model with 1694 rows, 6293 columns and 24572 nonzeros
Model fingerprint: 0x1d3235e7
Model has 8978 general constraints
Variable types: 1 continuous, 6292 integer (408 binary)
Coefficient statistics:
  Matrix range     [6e-02, 3e+05]
  Objective range  [9e-02, 2e+05]
  Bounds range     [1e+00, 2e+07]
  RHS range        [4e+03, 2e+04]
  GenCon rhs range [1e+00, 1e+00]
  GenCon coe range [1e+00, 1e+00]
Presolve removed 67 rows and 502 columns
Presolve time: 0.10s
Presolved: 1627 rows, 5791 columns, 23138 nonzeros
Presolved model has 4 SOS constraint(s)
Variable types: 0 continuous, 5791 integer (34 binary)

Root relaxation: objective 5.412034e+07, 6744 iterations, 0.08 seconds (0.11 work units)

    Nodes    |    Current Node    |     Objective Bounds      |     Work
 Expl Unexpl |  Obj  Depth IntInf | Incumbent    BestBd   Gap | It/Node Time

     0     0 5.4120e+07    0  600          - 5.4120e+07      -     -    0s
     0     0 5.4254e+07    0  594          - 5.4254e+07      -     -    0s
     0     0 5.4256e+07    0  599          - 5.4256e+07      -     -    0s
     0     0 5.4767e+07    0  861          - 5.4767e+07      -     -    0s
H    0     0                    6.322540e+07 5.4767e+07  13.4%     -    0s
     0     0 5.4767e+07    0  837 6.3225e+07 5.4767e+07  13.4%     -    0s
     0     0 5.4767e+07    0 1093 6.3225e+07 5.4767e+07  13.4%     -    0s
     0     0 5.4767e+07    0 1093 6.3225e+07 5.4767e+07  13.4%     -    0s
     0     0 5.4767e+07    0  724 6.3225e+07 5.4767e+07  13.4%     -    0s
     0     0 5.4767e+07    0  715 6.3225e+07 5.4767e+07  13.4%     -    0s
H    0     0                    5.734930e+07 5.4767e+07  4.50%     -    0s
H    0     0                    5.676559e+07 5.4767e+07  3.52%     -    0s
     0     2 5.4767e+07    0  712 5.6766e+07 5.4767e+07  3.52%     -    0s
H   35    36                    5.640356e+07 5.5191e+07  2.15%   853    1s
H   36    36                    5.639931e+07 5.5191e+07  2.14%   851    1s
H   37    36                    5.639631e+07 5.5191e+07  2.14%   847    1s
H   75    67                    5.567407e+07 5.5191e+07  0.87%   678    1s
H  289   122                    5.565101e+07 5.5277e+07  0.67%   315    2s
H 1144   809                    5.565085e+07 5.5309e+07  0.61%   131    4s
H 1155   809                    5.565084e+07 5.5309e+07  0.61%   131    4s
H 1183   754                    5.565077e+07 5.5309e+07  0.61%   129    4s
  1419   973 5.5569e+07   11  452 5.5651e+07 5.5411e+07  0.43%   126    5s
H 1585   938                    5.565076e+07 5.5411e+07  0.43%   144    7s
H 2708   964                    5.565072e+07 5.5411e+07  0.43%  97.1    9s
  3060   810 5.5568e+07   41  558 5.5651e+07 5.5411e+07  0.43%  89.9   10s

Cutting planes:
  Gomory: 1
  Implied bound: 385
  MIR: 39
  Flow path: 1
  Inf proof: 1
  Relax-and-lift: 11

Explored 6111 nodes (403103 simplex iterations) in 13.81 seconds (19.93 work units)
Thread count was 8 (of 8 available processors)

Solution count 10: 5.56507e+07 5.56508e+07 5.56508e+07 ... 5.64036e+07

Optimal solution found (tolerance 1.00e-04)
Best objective 5.565071607800e+07, best bound 5.565069763102e+07, gap 0.0000%

Gurobi 10.0.1 (mac64[arm]) logging started Fri Sep 22 19:18:16 2023

Set parameter LogFile to value "results/scenario_capacity/CAP_f/CAP_f_-50/mip_log.txt"
Gurobi Optimizer version 10.0.1 build v10.0.1rc0 (mac64[arm])

CPU model: Apple M1
Thread count: 8 physical cores, 8 logical processors, using up to 8 threads

Optimize a model with 1694 rows, 6293 columns and 24572 nonzeros
Model fingerprint: 0x1d3235e7
Model has 8978 general constraints
Variable types: 1 continuous, 6292 integer (408 binary)
Coefficient statistics:
  Matrix range     [6e-02, 3e+05]
  Objective range  [9e-02, 2e+05]
  Bounds range     [1e+00, 2e+07]
  RHS range        [4e+03, 2e+04]
  GenCon rhs range [1e+00, 1e+00]
  GenCon coe range [1e+00, 1e+00]
Presolve removed 67 rows and 502 columns
Presolve time: 0.12s
Presolved: 1627 rows, 5791 columns, 23138 nonzeros
Presolved model has 4 SOS constraint(s)
Variable types: 0 continuous, 5791 integer (34 binary)

Root relaxation: objective 5.412034e+07, 6744 iterations, 0.08 seconds (0.11 work units)

    Nodes    |    Current Node    |     Objective Bounds      |     Work
 Expl Unexpl |  Obj  Depth IntInf | Incumbent    BestBd   Gap | It/Node Time

     0     0 5.4120e+07    0  600          - 5.4120e+07      -     -    0s
     0     0 5.4254e+07    0  594          - 5.4254e+07      -     -    0s
     0     0 5.4256e+07    0  599          - 5.4256e+07      -     -    0s
     0     0 5.4767e+07    0  861          - 5.4767e+07      -     -    0s
H    0     0                    6.322540e+07 5.4767e+07  13.4%     -    0s
     0     0 5.4767e+07    0  837 6.3225e+07 5.4767e+07  13.4%     -    0s
     0     0 5.4767e+07    0 1093 6.3225e+07 5.4767e+07  13.4%     -    0s
     0     0 5.4767e+07    0 1093 6.3225e+07 5.4767e+07  13.4%     -    0s
     0     0 5.4767e+07    0  724 6.3225e+07 5.4767e+07  13.4%     -    0s
     0     0 5.4767e+07    0  715 6.3225e+07 5.4767e+07  13.4%     -    0s
H    0     0                    5.734930e+07 5.4767e+07  4.50%     -    0s
H    0     0                    5.676559e+07 5.4767e+07  3.52%     -    0s
     0     2 5.4767e+07    0  712 5.6766e+07 5.4767e+07  3.52%     -    0s
H   35    36                    5.640356e+07 5.5191e+07  2.15%   853    1s
H   36    36                    5.639931e+07 5.5191e+07  2.14%   851    1s
H   37    36                    5.639631e+07 5.5191e+07  2.14%   847    1s
H   75    67                    5.567407e+07 5.5191e+07  0.87%   678    1s
H  289   122                    5.565101e+07 5.5277e+07  0.67%   315    2s
H 1144   809                    5.565085e+07 5.5309e+07  0.61%   131    4s
H 1155   809                    5.565084e+07 5.5309e+07  0.61%   131    4s
H 1183   754                    5.565077e+07 5.5309e+07  0.61%   129    4s
  1502   974 5.5651e+07  100  713 5.5651e+07 5.5411e+07  0.43%   125    5s
H 1585   938                    5.565076e+07 5.5411e+07  0.43%   144    7s
H 2708   964                    5.565072e+07 5.5411e+07  0.43%  97.1    9s
  3006   822 5.5546e+07   39  742 5.5651e+07 5.5411e+07  0.43%  91.2   10s

Cutting planes:
  Gomory: 1
  Implied bound: 385
  MIR: 39
  Flow path: 1
  Inf proof: 1
  Relax-and-lift: 11

Explored 6111 nodes (403103 simplex iterations) in 13.42 seconds (19.93 work units)
Thread count was 8 (of 8 available processors)

Solution count 10: 5.56507e+07 5.56508e+07 5.56508e+07 ... 5.64036e+07

Optimal solution found (tolerance 1.00e-04)
Best objective 5.565071607800e+07, best bound 5.565069763102e+07, gap 0.0000%
Discarded solution information

Gurobi 10.0.1 (mac64[arm]) logging started Fri Sep 22 19:19:31 2023

Set parameter LogFile to value "results/scenario_capacity/CAP_f/CAP_f_-50/mip_log.txt"
Gurobi Optimizer version 10.0.1 build v10.0.1rc0 (mac64[arm])

CPU model: Apple M1
Thread count: 8 physical cores, 8 logical processors, using up to 8 threads

Optimize a model with 1694 rows, 6293 columns and 24572 nonzeros
Model fingerprint: 0x1d3235e7
Model has 8978 general constraints
Variable types: 1 continuous, 6292 integer (408 binary)
Coefficient statistics:
  Matrix range     [6e-02, 3e+05]
  Objective range  [9e-02, 2e+05]
  Bounds range     [1e+00, 2e+07]
  RHS range        [4e+03, 2e+04]
  GenCon rhs range [1e+00, 1e+00]
  GenCon coe range [1e+00, 1e+00]
Presolve removed 67 rows and 502 columns
Presolve time: 0.10s
Presolved: 1627 rows, 5791 columns, 23138 nonzeros
Presolved model has 4 SOS constraint(s)
Variable types: 0 continuous, 5791 integer (34 binary)

Root relaxation: objective 5.412034e+07, 6744 iterations, 0.11 seconds (0.11 work units)

    Nodes    |    Current Node    |     Objective Bounds      |     Work
 Expl Unexpl |  Obj  Depth IntInf | Incumbent    BestBd   Gap | It/Node Time

     0     0 5.4120e+07    0  600          - 5.4120e+07      -     -    0s
     0     0 5.4254e+07    0  594          - 5.4254e+07      -     -    0s
     0     0 5.4256e+07    0  599          - 5.4256e+07      -     -    0s
     0     0 5.4767e+07    0  861          - 5.4767e+07      -     -    0s
H    0     0                    6.322540e+07 5.4767e+07  13.4%     -    0s
     0     0 5.4767e+07    0  837 6.3225e+07 5.4767e+07  13.4%     -    0s
     0     0 5.4767e+07    0 1093 6.3225e+07 5.4767e+07  13.4%     -    0s
     0     0 5.4767e+07    0 1093 6.3225e+07 5.4767e+07  13.4%     -    0s
     0     0 5.4767e+07    0  724 6.3225e+07 5.4767e+07  13.4%     -    0s
     0     0 5.4767e+07    0  715 6.3225e+07 5.4767e+07  13.4%     -    0s
H    0     0                    5.734930e+07 5.4767e+07  4.50%     -    0s
H    0     0                    5.676559e+07 5.4767e+07  3.52%     -    0s
     0     2 5.4767e+07    0  712 5.6766e+07 5.4767e+07  3.52%     -    0s
H   35    36                    5.640356e+07 5.5191e+07  2.15%   853    1s
H   36    36                    5.639931e+07 5.5191e+07  2.14%   851    1s
H   37    36                    5.639631e+07 5.5191e+07  2.14%   847    1s
H   75    67                    5.567407e+07 5.5191e+07  0.87%   678    1s
H  289   122                    5.565101e+07 5.5277e+07  0.67%   315    2s
H 1144   809                    5.565085e+07 5.5309e+07  0.61%   131    4s
H 1155   809                    5.565084e+07 5.5309e+07  0.61%   131    4s
H 1183   754                    5.565077e+07 5.5309e+07  0.61%   129    4s
  1392   913 5.5557e+07   10  615 5.5651e+07 5.5410e+07  0.43%   126    5s
H 1585   938                    5.565076e+07 5.5411e+07  0.43%   144    7s
H 2708   964                    5.565072e+07 5.5411e+07  0.43%  97.1    9s
  3212   758 5.5569e+07   48  578 5.5651e+07 5.5411e+07  0.43%  86.9   10s

Cutting planes:
  Gomory: 1
  Implied bound: 385
  MIR: 39
  Flow path: 1
  Inf proof: 1
  Relax-and-lift: 11

Explored 6111 nodes (403103 simplex iterations) in 13.11 seconds (19.93 work units)
Thread count was 8 (of 8 available processors)

Solution count 10: 5.56507e+07 5.56508e+07 5.56508e+07 ... 5.64036e+07

Optimal solution found (tolerance 1.00e-04)
Best objective 5.565071607800e+07, best bound 5.565069763102e+07, gap 0.0000%
Discarded solution information

Gurobi 10.0.1 (mac64[arm]) logging started Fri Sep 22 19:32:56 2023

Set parameter LogFile to value "results/scenario_capacity/CAP_f/CAP_f_-50/mip_log.txt"
Gurobi Optimizer version 10.0.1 build v10.0.1rc0 (mac64[arm])

CPU model: Apple M1
Thread count: 8 physical cores, 8 logical processors, using up to 8 threads

Optimize a model with 1694 rows, 6293 columns and 24572 nonzeros
Model fingerprint: 0x146390d0
Model has 8978 general constraints
Variable types: 1 continuous, 6292 integer (408 binary)
Coefficient statistics:
  Matrix range     [6e-02, 3e+05]
  Objective range  [9e-02, 2e+05]
  Bounds range     [1e+00, 2e+07]
  RHS range        [4e+03, 2e+04]
  GenCon rhs range [1e+00, 1e+00]
  GenCon coe range [1e+00, 1e+00]
Presolve removed 67 rows and 502 columns
Presolve time: 0.08s
Presolved: 1627 rows, 5791 columns, 23173 nonzeros
Presolved model has 4 SOS constraint(s)
Variable types: 0 continuous, 5791 integer (34 binary)

Root relaxation: objective 5.809016e+07, 6272 iterations, 0.06 seconds (0.08 work units)

    Nodes    |    Current Node    |     Objective Bounds      |     Work
 Expl Unexpl |  Obj  Depth IntInf | Incumbent    BestBd   Gap | It/Node Time

     0     0 5.8090e+07    0  637          - 5.8090e+07      -     -    0s
     0     0 5.8276e+07    0  928          - 5.8276e+07      -     -    0s
     0     0 5.8305e+07    0  853          - 5.8305e+07      -     -    0s
     0     0 5.8307e+07    0  902          - 5.8307e+07      -     -    0s
     0     0 5.8307e+07    0  907          - 5.8307e+07      -     -    0s
H    0     0                    6.734412e+07 5.8623e+07  13.0%     -    0s
     0     0 5.8789e+07    0  889 6.7344e+07 5.8789e+07  12.7%     -    0s
H    0     0                    6.726355e+07 5.8789e+07  12.6%     -    0s
     0     0 5.8789e+07    0  913 6.7264e+07 5.8789e+07  12.6%     -    0s
     0     0 5.8789e+07    0 1015 6.7264e+07 5.8789e+07  12.6%     -    0s
     0     0 5.8789e+07    0 1031 6.7264e+07 5.8789e+07  12.6%     -    0s
     0     0 5.8789e+07    0 1028 6.7264e+07 5.8789e+07  12.6%     -    0s
H    0     0                    6.652878e+07 5.8834e+07  11.6%     -    0s
     0     0 5.8984e+07    0 1166 6.6529e+07 5.8984e+07  11.3%     -    0s
     0     0 5.9148e+07    0 1157 6.6529e+07 5.9148e+07  11.1%     -    0s
H    0     0                    6.284888e+07 5.9148e+07  5.89%     -    1s
     0     2 5.9148e+07    0 1156 6.2849e+07 5.9148e+07  5.89%     -    1s
H   33    39                    6.281728e+07 5.9393e+07  5.45%   980    2s
H   34    39                    6.281149e+07 5.9393e+07  5.44%   959    2s
H   35    39                    6.280917e+07 5.9393e+07  5.44%   937    2s
H   41    49                    6.209468e+07 5.9393e+07  4.35%   843    2s
H   43    49                    6.186090e+07 5.9393e+07  3.99%   813    2s
H   44    49                    6.182445e+07 5.9393e+07  3.93%   798    2s
H   76    77                    6.171115e+07 5.9393e+07  3.76%   627    2s
H   83    83                    6.167473e+07 5.9393e+07  3.70%   601    2s
H   85    83                    6.166279e+07 5.9393e+07  3.68%   599    2s
H   87    83                    6.144287e+07 5.9393e+07  3.34%   594    2s
H   94    83                    6.125231e+07 5.9393e+07  3.04%   561    2s
H  322   169                    6.106005e+07 5.9410e+07  2.70%   361    3s
*  323   169              17    6.098032e+07 5.9410e+07  2.58%   360    3s
H  360   181                    6.088666e+07 5.9410e+07  2.43%   360    4s
*  362   181              13    6.084082e+07 5.9410e+07  2.35%   359    4s
H  390   176                    6.083349e+07 5.9416e+07  2.33%   347    4s
H  393   176                    6.083190e+07 5.9416e+07  2.33%   348    4s
*  569   215              18    6.077609e+07 5.9416e+07  2.24%   327    4s
   664   255     cutoff    8      6.0776e+07 5.9682e+07  1.80%   315    5s
H  694   255                    6.062108e+07 5.9682e+07  1.55%   307    5s
H  726   234                    6.056276e+07 5.9682e+07  1.45%   302    5s
H  788   239                    6.019666e+07 5.9939e+07  0.43%   300    5s
H  850   203                    6.015082e+07 6.0002e+07  0.25%   317    5s

Cutting planes:
  Gomory: 2
  Implied bound: 772
  MIR: 113
  Flow path: 1
  Inf proof: 6
  Relax-and-lift: 75

Explored 1057 nodes (310274 simplex iterations) in 6.07 seconds (7.59 work units)
Thread count was 8 (of 8 available processors)

Solution count 10: 6.01508e+07 6.01967e+07 6.05628e+07 ... 6.09803e+07

Optimal solution found (tolerance 1.00e-04)
Best objective 6.015082022500e+07, best bound 6.015082022500e+07, gap 0.0000%
Discarded solution information
